EjemplosPL/ficheros/sudoku.lp
Minimize

1


Subject To

a0: x_0_0_1 + x_1_0_1 + x_2_0_1 + x_3_0_1 + x_4_0_1 + x_5_0_1 + x_6_0_1 + x_7_0_1 + x_8_0_1 = 1
a1: x_0_0_2 + x_1_0_2 + x_2_0_2 + x_3_0_2 + x_4_0_2 + x_5_0_2 + x_6_0_2 + x_7_0_2 + x_8_0_2 = 1
a2: x_0_0_3 + x_1_0_3 + x_2_0_3 + x_3_0_3 + x_4_0_3 + x_5_0_3 + x_6_0_3 + x_7_0_3 + x_8_0_3 = 1
a3: x_0_0_4 + x_1_0_4 + x_2_0_4 + x_3_0_4 + x_4_0_4 + x_5_0_4 + x_6_0_4 + x_7_0_4 + x_8_0_4 = 1
a4: x_0_0_5 + x_1_0_5 + x_2_0_5 + x_3_0_5 + x_4_0_5 + x_5_0_5 + x_6_0_5 + x_7_0_5 + x_8_0_5 = 1
a5: x_0_0_6 + x_1_0_6 + x_2_0_6 + x_3_0_6 + x_4_0_6 + x_5_0_6 + x_6_0_6 + x_7_0_6 + x_8_0_6 = 1
a6: x_0_0_7 + x_1_0_7 + x_2_0_7 + x_3_0_7 + x_4_0_7 + x_5_0_7 + x_6_0_7 + x_7_0_7 + x_8_0_7 = 1
a7: x_0_0_8 + x_1_0_8 + x_2_0_8 + x_3_0_8 + x_4_0_8 + x_5_0_8 + x_6_0_8 + x_7_0_8 + x_8_0_8 = 1
a8: x_0_0_9 + x_1_0_9 + x_2_0_9 + x_3_0_9 + x_4_0_9 + x_5_0_9 + x_6_0_9 + x_7_0_9 + x_8_0_9 = 1
a9: x_0_1_1 + x_1_1_1 + x_2_1_1 + x_3_1_1 + x_4_1_1 + x_5_1_1 + x_6_1_1 + x_7_1_1 + x_8_1_1 = 1
a10: x_0_1_2 + x_1_1_2 + x_2_1_2 + x_3_1_2 + x_4_1_2 + x_5_1_2 + x_6_1_2 + x_7_1_2 + x_8_1_2 = 1
a11: x_0_1_3 + x_1_1_3 + x_2_1_3 + x_3_1_3 + x_4_1_3 + x_5_1_3 + x_6_1_3 + x_7_1_3 + x_8_1_3 = 1
a12: x_0_1_4 + x_1_1_4 + x_2_1_4 + x_3_1_4 + x_4_1_4 + x_5_1_4 + x_6_1_4 + x_7_1_4 + x_8_1_4 = 1
a13: x_0_1_5 + x_1_1_5 + x_2_1_5 + x_3_1_5 + x_4_1_5 + x_5_1_5 + x_6_1_5 + x_7_1_5 + x_8_1_5 = 1
a14: x_0_1_6 + x_1_1_6 + x_2_1_6 + x_3_1_6 + x_4_1_6 + x_5_1_6 + x_6_1_6 + x_7_1_6 + x_8_1_6 = 1
a15: x_0_1_7 + x_1_1_7 + x_2_1_7 + x_3_1_7 + x_4_1_7 + x_5_1_7 + x_6_1_7 + x_7_1_7 + x_8_1_7 = 1
a16: x_0_1_8 + x_1_1_8 + x_2_1_8 + x_3_1_8 + x_4_1_8 + x_5_1_8 + x_6_1_8 + x_7_1_8 + x_8_1_8 = 1
a17: x_0_1_9 + x_1_1_9 + x_2_1_9 + x_3_1_9 + x_4_1_9 + x_5_1_9 + x_6_1_9 + x_7_1_9 + x_8_1_9 = 1
a18: x_0_2_1 + x_1_2_1 + x_2_2_1 + x_3_2_1 + x_4_2_1 + x_5_2_1 + x_6_2_1 + x_7_2_1 + x_8_2_1 = 1
a19: x_0_2_2 + x_1_2_2 + x_2_2_2 + x_3_2_2 + x_4_2_2 + x_5_2_2 + x_6_2_2 + x_7_2_2 + x_8_2_2 = 1
a20: x_0_2_3 + x_1_2_3 + x_2_2_3 + x_3_2_3 + x_4_2_3 + x_5_2_3 + x_6_2_3 + x_7_2_3 + x_8_2_3 = 1
a21: x_0_2_4 + x_1_2_4 + x_2_2_4 + x_3_2_4 + x_4_2_4 + x_5_2_4 + x_6_2_4 + x_7_2_4 + x_8_2_4 = 1
a22: x_0_2_5 + x_1_2_5 + x_2_2_5 + x_3_2_5 + x_4_2_5 + x_5_2_5 + x_6_2_5 + x_7_2_5 + x_8_2_5 = 1
a23: x_0_2_6 + x_1_2_6 + x_2_2_6 + x_3_2_6 + x_4_2_6 + x_5_2_6 + x_6_2_6 + x_7_2_6 + x_8_2_6 = 1
a24: x_0_2_7 + x_1_2_7 + x_2_2_7 + x_3_2_7 + x_4_2_7 + x_5_2_7 + x_6_2_7 + x_7_2_7 + x_8_2_7 = 1
a25: x_0_2_8 + x_1_2_8 + x_2_2_8 + x_3_2_8 + x_4_2_8 + x_5_2_8 + x_6_2_8 + x_7_2_8 + x_8_2_8 = 1
a26: x_0_2_9 + x_1_2_9 + x_2_2_9 + x_3_2_9 + x_4_2_9 + x_5_2_9 + x_6_2_9 + x_7_2_9 + x_8_2_9 = 1
a27: x_0_3_1 + x_1_3_1 + x_2_3_1 + x_3_3_1 + x_4_3_1 + x_5_3_1 + x_6_3_1 + x_7_3_1 + x_8_3_1 = 1
a28: x_0_3_2 + x_1_3_2 + x_2_3_2 + x_3_3_2 + x_4_3_2 + x_5_3_2 + x_6_3_2 + x_7_3_2 + x_8_3_2 = 1
a29: x_0_3_3 + x_1_3_3 + x_2_3_3 + x_3_3_3 + x_4_3_3 + x_5_3_3 + x_6_3_3 + x_7_3_3 + x_8_3_3 = 1
a30: x_0_3_4 + x_1_3_4 + x_2_3_4 + x_3_3_4 + x_4_3_4 + x_5_3_4 + x_6_3_4 + x_7_3_4 + x_8_3_4 = 1
a31: x_0_3_5 + x_1_3_5 + x_2_3_5 + x_3_3_5 + x_4_3_5 + x_5_3_5 + x_6_3_5 + x_7_3_5 + x_8_3_5 = 1
a32: x_0_3_6 + x_1_3_6 + x_2_3_6 + x_3_3_6 + x_4_3_6 + x_5_3_6 + x_6_3_6 + x_7_3_6 + x_8_3_6 = 1
a33: x_0_3_7 + x_1_3_7 + x_2_3_7 + x_3_3_7 + x_4_3_7 + x_5_3_7 + x_6_3_7 + x_7_3_7 + x_8_3_7 = 1
a34: x_0_3_8 + x_1_3_8 + x_2_3_8 + x_3_3_8 + x_4_3_8 + x_5_3_8 + x_6_3_8 + x_7_3_8 + x_8_3_8 = 1
a35: x_0_3_9 + x_1_3_9 + x_2_3_9 + x_3_3_9 + x_4_3_9 + x_5_3_9 + x_6_3_9 + x_7_3_9 + x_8_3_9 = 1
a36: x_0_4_1 + x_1_4_1 + x_2_4_1 + x_3_4_1 + x_4_4_1 + x_5_4_1 + x_6_4_1 + x_7_4_1 + x_8_4_1 = 1
a37: x_0_4_2 + x_1_4_2 + x_2_4_2 + x_3_4_2 + x_4_4_2 + x_5_4_2 + x_6_4_2 + x_7_4_2 + x_8_4_2 = 1
a38: x_0_4_3 + x_1_4_3 + x_2_4_3 + x_3_4_3 + x_4_4_3 + x_5_4_3 + x_6_4_3 + x_7_4_3 + x_8_4_3 = 1
a39: x_0_4_4 + x_1_4_4 + x_2_4_4 + x_3_4_4 + x_4_4_4 + x_5_4_4 + x_6_4_4 + x_7_4_4 + x_8_4_4 = 1
a40: x_0_4_5 + x_1_4_5 + x_2_4_5 + x_3_4_5 + x_4_4_5 + x_5_4_5 + x_6_4_5 + x_7_4_5 + x_8_4_5 = 1
a41: x_0_4_6 + x_1_4_6 + x_2_4_6 + x_3_4_6 + x_4_4_6 + x_5_4_6 + x_6_4_6 + x_7_4_6 + x_8_4_6 = 1
a42: x_0_4_7 + x_1_4_7 + x_2_4_7 + x_3_4_7 + x_4_4_7 + x_5_4_7 + x_6_4_7 + x_7_4_7 + x_8_4_7 = 1
a43: x_0_4_8 + x_1_4_8 + x_2_4_8 + x_3_4_8 + x_4_4_8 + x_5_4_8 + x_6_4_8 + x_7_4_8 + x_8_4_8 = 1
a44: x_0_4_9 + x_1_4_9 + x_2_4_9 + x_3_4_9 + x_4_4_9 + x_5_4_9 + x_6_4_9 + x_7_4_9 + x_8_4_9 = 1
a45: x_0_5_1 + x_1_5_1 + x_2_5_1 + x_3_5_1 + x_4_5_1 + x_5_5_1 + x_6_5_1 + x_7_5_1 + x_8_5_1 = 1
a46: x_0_5_2 + x_1_5_2 + x_2_5_2 + x_3_5_2 + x_4_5_2 + x_5_5_2 + x_6_5_2 + x_7_5_2 + x_8_5_2 = 1
a47: x_0_5_3 + x_1_5_3 + x_2_5_3 + x_3_5_3 + x_4_5_3 + x_5_5_3 + x_6_5_3 + x_7_5_3 + x_8_5_3 = 1
a48: x_0_5_4 + x_1_5_4 + x_2_5_4 + x_3_5_4 + x_4_5_4 + x_5_5_4 + x_6_5_4 + x_7_5_4 + x_8_5_4 = 1
a49: x_0_5_5 + x_1_5_5 + x_2_5_5 + x_3_5_5 + x_4_5_5 + x_5_5_5 + x_6_5_5 + x_7_5_5 + x_8_5_5 = 1
a50: x_0_5_6 + x_1_5_6 + x_2_5_6 + x_3_5_6 + x_4_5_6 + x_5_5_6 + x_6_5_6 + x_7_5_6 + x_8_5_6 = 1
a51: x_0_5_7 + x_1_5_7 + x_2_5_7 + x_3_5_7 + x_4_5_7 + x_5_5_7 + x_6_5_7 + x_7_5_7 + x_8_5_7 = 1
a52: x_0_5_8 + x_1_5_8 + x_2_5_8 + x_3_5_8 + x_4_5_8 + x_5_5_8 + x_6_5_8 + x_7_5_8 + x_8_5_8 = 1
a53: x_0_5_9 + x_1_5_9 + x_2_5_9 + x_3_5_9 + x_4_5_9 + x_5_5_9 + x_6_5_9 + x_7_5_9 + x_8_5_9 = 1
a54: x_0_6_1 + x_1_6_1 + x_2_6_1 + x_3_6_1 + x_4_6_1 + x_5_6_1 + x_6_6_1 + x_7_6_1 + x_8_6_1 = 1
a55: x_0_6_2 + x_1_6_2 + x_2_6_2 + x_3_6_2 + x_4_6_2 + x_5_6_2 + x_6_6_2 + x_7_6_2 + x_8_6_2 = 1
a56: x_0_6_3 + x_1_6_3 + x_2_6_3 + x_3_6_3 + x_4_6_3 + x_5_6_3 + x_6_6_3 + x_7_6_3 + x_8_6_3 = 1
a57: x_0_6_4 + x_1_6_4 + x_2_6_4 + x_3_6_4 + x_4_6_4 + x_5_6_4 + x_6_6_4 + x_7_6_4 + x_8_6_4 = 1
a58: x_0_6_5 + x_1_6_5 + x_2_6_5 + x_3_6_5 + x_4_6_5 + x_5_6_5 + x_6_6_5 + x_7_6_5 + x_8_6_5 = 1
a59: x_0_6_6 + x_1_6_6 + x_2_6_6 + x_3_6_6 + x_4_6_6 + x_5_6_6 + x_6_6_6 + x_7_6_6 + x_8_6_6 = 1
a60: x_0_6_7 + x_1_6_7 + x_2_6_7 + x_3_6_7 + x_4_6_7 + x_5_6_7 + x_6_6_7 + x_7_6_7 + x_8_6_7 = 1
a61: x_0_6_8 + x_1_6_8 + x_2_6_8 + x_3_6_8 + x_4_6_8 + x_5_6_8 + x_6_6_8 + x_7_6_8 + x_8_6_8 = 1
a62: x_0_6_9 + x_1_6_9 + x_2_6_9 + x_3_6_9 + x_4_6_9 + x_5_6_9 + x_6_6_9 + x_7_6_9 + x_8_6_9 = 1
a63: x_0_7_1 + x_1_7_1 + x_2_7_1 + x_3_7_1 + x_4_7_1 + x_5_7_1 + x_6_7_1 + x_7_7_1 + x_8_7_1 = 1
a64: x_0_7_2 + x_1_7_2 + x_2_7_2 + x_3_7_2 + x_4_7_2 + x_5_7_2 + x_6_7_2 + x_7_7_2 + x_8_7_2 = 1
a65: x_0_7_3 + x_1_7_3 + x_2_7_3 + x_3_7_3 + x_4_7_3 + x_5_7_3 + x_6_7_3 + x_7_7_3 + x_8_7_3 = 1
a66: x_0_7_4 + x_1_7_4 + x_2_7_4 + x_3_7_4 + x_4_7_4 + x_5_7_4 + x_6_7_4 + x_7_7_4 + x_8_7_4 = 1
a67: x_0_7_5 + x_1_7_5 + x_2_7_5 + x_3_7_5 + x_4_7_5 + x_5_7_5 + x_6_7_5 + x_7_7_5 + x_8_7_5 = 1
a68: x_0_7_6 + x_1_7_6 + x_2_7_6 + x_3_7_6 + x_4_7_6 + x_5_7_6 + x_6_7_6 + x_7_7_6 + x_8_7_6 = 1
a69: x_0_7_7 + x_1_7_7 + x_2_7_7 + x_3_7_7 + x_4_7_7 + x_5_7_7 + x_6_7_7 + x_7_7_7 + x_8_7_7 = 1
a70: x_0_7_8 + x_1_7_8 + x_2_7_8 + x_3_7_8 + x_4_7_8 + x_5_7_8 + x_6_7_8 + x_7_7_8 + x_8_7_8 = 1
a71: x_0_7_9 + x_1_7_9 + x_2_7_9 + x_3_7_9 + x_4_7_9 + x_5_7_9 + x_6_7_9 + x_7_7_9 + x_8_7_9 = 1
a72: x_0_8_1 + x_1_8_1 + x_2_8_1 + x_3_8_1 + x_4_8_1 + x_5_8_1 + x_6_8_1 + x_7_8_1 + x_8_8_1 = 1
a73: x_0_8_2 + x_1_8_2 + x_2_8_2 + x_3_8_2 + x_4_8_2 + x_5_8_2 + x_6_8_2 + x_7_8_2 + x_8_8_2 = 1
a74: x_0_8_3 + x_1_8_3 + x_2_8_3 + x_3_8_3 + x_4_8_3 + x_5_8_3 + x_6_8_3 + x_7_8_3 + x_8_8_3 = 1
a75: x_0_8_4 + x_1_8_4 + x_2_8_4 + x_3_8_4 + x_4_8_4 + x_5_8_4 + x_6_8_4 + x_7_8_4 + x_8_8_4 = 1
a76: x_0_8_5 + x_1_8_5 + x_2_8_5 + x_3_8_5 + x_4_8_5 + x_5_8_5 + x_6_8_5 + x_7_8_5 + x_8_8_5 = 1
a77: x_0_8_6 + x_1_8_6 + x_2_8_6 + x_3_8_6 + x_4_8_6 + x_5_8_6 + x_6_8_6 + x_7_8_6 + x_8_8_6 = 1
a78: x_0_8_7 + x_1_8_7 + x_2_8_7 + x_3_8_7 + x_4_8_7 + x_5_8_7 + x_6_8_7 + x_7_8_7 + x_8_8_7 = 1
a79: x_0_8_8 + x_1_8_8 + x_2_8_8 + x_3_8_8 + x_4_8_8 + x_5_8_8 + x_6_8_8 + x_7_8_8 + x_8_8_8 = 1
a80: x_0_8_9 + x_1_8_9 + x_2_8_9 + x_3_8_9 + x_4_8_9 + x_5_8_9 + x_6_8_9 + x_7_8_9 + x_8_8_9 = 1
b0: x_0_0_1 + x_0_1_1 + x_0_2_1 + x_0_3_1 + x_0_4_1 + x_0_5_1 + x_0_6_1 + x_0_7_1 + x_0_8_1 = 1
b1: x_0_0_2 + x_0_1_2 + x_0_2_2 + x_0_3_2 + x_0_4_2 + x_0_5_2 + x_0_6_2 + x_0_7_2 + x_0_8_2 = 1
b2: x_0_0_3 + x_0_1_3 + x_0_2_3 + x_0_3_3 + x_0_4_3 + x_0_5_3 + x_0_6_3 + x_0_7_3 + x_0_8_3 = 1
b3: x_0_0_4 + x_0_1_4 + x_0_2_4 + x_0_3_4 + x_0_4_4 + x_0_5_4 + x_0_6_4 + x_0_7_4 + x_0_8_4 = 1
b4: x_0_0_5 + x_0_1_5 + x_0_2_5 + x_0_3_5 + x_0_4_5 + x_0_5_5 + x_0_6_5 + x_0_7_5 + x_0_8_5 = 1
b5: x_0_0_6 + x_0_1_6 + x_0_2_6 + x_0_3_6 + x_0_4_6 + x_0_5_6 + x_0_6_6 + x_0_7_6 + x_0_8_6 = 1
b6: x_0_0_7 + x_0_1_7 + x_0_2_7 + x_0_3_7 + x_0_4_7 + x_0_5_7 + x_0_6_7 + x_0_7_7 + x_0_8_7 = 1
b7: x_0_0_8 + x_0_1_8 + x_0_2_8 + x_0_3_8 + x_0_4_8 + x_0_5_8 + x_0_6_8 + x_0_7_8 + x_0_8_8 = 1
b8: x_0_0_9 + x_0_1_9 + x_0_2_9 + x_0_3_9 + x_0_4_9 + x_0_5_9 + x_0_6_9 + x_0_7_9 + x_0_8_9 = 1
b9: x_1_0_1 + x_1_1_1 + x_1_2_1 + x_1_3_1 + x_1_4_1 + x_1_5_1 + x_1_6_1 + x_1_7_1 + x_1_8_1 = 1
b10: x_1_0_2 + x_1_1_2 + x_1_2_2 + x_1_3_2 + x_1_4_2 + x_1_5_2 + x_1_6_2 + x_1_7_2 + x_1_8_2 = 1
b11: x_1_0_3 + x_1_1_3 + x_1_2_3 + x_1_3_3 + x_1_4_3 + x_1_5_3 + x_1_6_3 + x_1_7_3 + x_1_8_3 = 1
b12: x_1_0_4 + x_1_1_4 + x_1_2_4 + x_1_3_4 + x_1_4_4 + x_1_5_4 + x_1_6_4 + x_1_7_4 + x_1_8_4 = 1
b13: x_1_0_5 + x_1_1_5 + x_1_2_5 + x_1_3_5 + x_1_4_5 + x_1_5_5 + x_1_6_5 + x_1_7_5 + x_1_8_5 = 1
b14: x_1_0_6 + x_1_1_6 + x_1_2_6 + x_1_3_6 + x_1_4_6 + x_1_5_6 + x_1_6_6 + x_1_7_6 + x_1_8_6 = 1
b15: x_1_0_7 + x_1_1_7 + x_1_2_7 + x_1_3_7 + x_1_4_7 + x_1_5_7 + x_1_6_7 + x_1_7_7 + x_1_8_7 = 1
b16: x_1_0_8 + x_1_1_8 + x_1_2_8 + x_1_3_8 + x_1_4_8 + x_1_5_8 + x_1_6_8 + x_1_7_8 + x_1_8_8 = 1
b17: x_1_0_9 + x_1_1_9 + x_1_2_9 + x_1_3_9 + x_1_4_9 + x_1_5_9 + x_1_6_9 + x_1_7_9 + x_1_8_9 = 1
b18: x_2_0_1 + x_2_1_1 + x_2_2_1 + x_2_3_1 + x_2_4_1 + x_2_5_1 + x_2_6_1 + x_2_7_1 + x_2_8_1 = 1
b19: x_2_0_2 + x_2_1_2 + x_2_2_2 + x_2_3_2 + x_2_4_2 + x_2_5_2 + x_2_6_2 + x_2_7_2 + x_2_8_2 = 1
b20: x_2_0_3 + x_2_1_3 + x_2_2_3 + x_2_3_3 + x_2_4_3 + x_2_5_3 + x_2_6_3 + x_2_7_3 + x_2_8_3 = 1
b21: x_2_0_4 + x_2_1_4 + x_2_2_4 + x_2_3_4 + x_2_4_4 + x_2_5_4 + x_2_6_4 + x_2_7_4 + x_2_8_4 = 1
b22: x_2_0_5 + x_2_1_5 + x_2_2_5 + x_2_3_5 + x_2_4_5 + x_2_5_5 + x_2_6_5 + x_2_7_5 + x_2_8_5 = 1
b23: x_2_0_6 + x_2_1_6 + x_2_2_6 + x_2_3_6 + x_2_4_6 + x_2_5_6 + x_2_6_6 + x_2_7_6 + x_2_8_6 = 1
b24: x_2_0_7 + x_2_1_7 + x_2_2_7 + x_2_3_7 + x_2_4_7 + x_2_5_7 + x_2_6_7 + x_2_7_7 + x_2_8_7 = 1
b25: x_2_0_8 + x_2_1_8 + x_2_2_8 + x_2_3_8 + x_2_4_8 + x_2_5_8 + x_2_6_8 + x_2_7_8 + x_2_8_8 = 1
b26: x_2_0_9 + x_2_1_9 + x_2_2_9 + x_2_3_9 + x_2_4_9 + x_2_5_9 + x_2_6_9 + x_2_7_9 + x_2_8_9 = 1
b27: x_3_0_1 + x_3_1_1 + x_3_2_1 + x_3_3_1 + x_3_4_1 + x_3_5_1 + x_3_6_1 + x_3_7_1 + x_3_8_1 = 1
b28: x_3_0_2 + x_3_1_2 + x_3_2_2 + x_3_3_2 + x_3_4_2 + x_3_5_2 + x_3_6_2 + x_3_7_2 + x_3_8_2 = 1
b29: x_3_0_3 + x_3_1_3 + x_3_2_3 + x_3_3_3 + x_3_4_3 + x_3_5_3 + x_3_6_3 + x_3_7_3 + x_3_8_3 = 1
b30: x_3_0_4 + x_3_1_4 + x_3_2_4 + x_3_3_4 + x_3_4_4 + x_3_5_4 + x_3_6_4 + x_3_7_4 + x_3_8_4 = 1
b31: x_3_0_5 + x_3_1_5 + x_3_2_5 + x_3_3_5 + x_3_4_5 + x_3_5_5 + x_3_6_5 + x_3_7_5 + x_3_8_5 = 1
b32: x_3_0_6 + x_3_1_6 + x_3_2_6 + x_3_3_6 + x_3_4_6 + x_3_5_6 + x_3_6_6 + x_3_7_6 + x_3_8_6 = 1
b33: x_3_0_7 + x_3_1_7 + x_3_2_7 + x_3_3_7 + x_3_4_7 + x_3_5_7 + x_3_6_7 + x_3_7_7 + x_3_8_7 = 1
b34: x_3_0_8 + x_3_1_8 + x_3_2_8 + x_3_3_8 + x_3_4_8 + x_3_5_8 + x_3_6_8 + x_3_7_8 + x_3_8_8 = 1
b35: x_3_0_9 + x_3_1_9 + x_3_2_9 + x_3_3_9 + x_3_4_9 + x_3_5_9 + x_3_6_9 + x_3_7_9 + x_3_8_9 = 1
b36: x_4_0_1 + x_4_1_1 + x_4_2_1 + x_4_3_1 + x_4_4_1 + x_4_5_1 + x_4_6_1 + x_4_7_1 + x_4_8_1 = 1
b37: x_4_0_2 + x_4_1_2 + x_4_2_2 + x_4_3_2 + x_4_4_2 + x_4_5_2 + x_4_6_2 + x_4_7_2 + x_4_8_2 = 1
b38: x_4_0_3 + x_4_1_3 + x_4_2_3 + x_4_3_3 + x_4_4_3 + x_4_5_3 + x_4_6_3 + x_4_7_3 + x_4_8_3 = 1
b39: x_4_0_4 + x_4_1_4 + x_4_2_4 + x_4_3_4 + x_4_4_4 + x_4_5_4 + x_4_6_4 + x_4_7_4 + x_4_8_4 = 1
b40: x_4_0_5 + x_4_1_5 + x_4_2_5 + x_4_3_5 + x_4_4_5 + x_4_5_5 + x_4_6_5 + x_4_7_5 + x_4_8_5 = 1
b41: x_4_0_6 + x_4_1_6 + x_4_2_6 + x_4_3_6 + x_4_4_6 + x_4_5_6 + x_4_6_6 + x_4_7_6 + x_4_8_6 = 1
b42: x_4_0_7 + x_4_1_7 + x_4_2_7 + x_4_3_7 + x_4_4_7 + x_4_5_7 + x_4_6_7 + x_4_7_7 + x_4_8_7 = 1
b43: x_4_0_8 + x_4_1_8 + x_4_2_8 + x_4_3_8 + x_4_4_8 + x_4_5_8 + x_4_6_8 + x_4_7_8 + x_4_8_8 = 1
b44: x_4_0_9 + x_4_1_9 + x_4_2_9 + x_4_3_9 + x_4_4_9 + x_4_5_9 + x_4_6_9 + x_4_7_9 + x_4_8_9 = 1
b45: x_5_0_1 + x_5_1_1 + x_5_2_1 + x_5_3_1 + x_5_4_1 + x_5_5_1 + x_5_6_1 + x_5_7_1 + x_5_8_1 = 1
b46: x_5_0_2 + x_5_1_2 + x_5_2_2 + x_5_3_2 + x_5_4_2 + x_5_5_2 + x_5_6_2 + x_5_7_2 + x_5_8_2 = 1
b47: x_5_0_3 + x_5_1_3 + x_5_2_3 + x_5_3_3 + x_5_4_3 + x_5_5_3 + x_5_6_3 + x_5_7_3 + x_5_8_3 = 1
b48: x_5_0_4 + x_5_1_4 + x_5_2_4 + x_5_3_4 + x_5_4_4 + x_5_5_4 + x_5_6_4 + x_5_7_4 + x_5_8_4 = 1
b49: x_5_0_5 + x_5_1_5 + x_5_2_5 + x_5_3_5 + x_5_4_5 + x_5_5_5 + x_5_6_5 + x_5_7_5 + x_5_8_5 = 1
b50: x_5_0_6 + x_5_1_6 + x_5_2_6 + x_5_3_6 + x_5_4_6 + x_5_5_6 + x_5_6_6 + x_5_7_6 + x_5_8_6 = 1
b51: x_5_0_7 + x_5_1_7 + x_5_2_7 + x_5_3_7 + x_5_4_7 + x_5_5_7 + x_5_6_7 + x_5_7_7 + x_5_8_7 = 1
b52: x_5_0_8 + x_5_1_8 + x_5_2_8 + x_5_3_8 + x_5_4_8 + x_5_5_8 + x_5_6_8 + x_5_7_8 + x_5_8_8 = 1
b53: x_5_0_9 + x_5_1_9 + x_5_2_9 + x_5_3_9 + x_5_4_9 + x_5_5_9 + x_5_6_9 + x_5_7_9 + x_5_8_9 = 1
b54: x_6_0_1 + x_6_1_1 + x_6_2_1 + x_6_3_1 + x_6_4_1 + x_6_5_1 + x_6_6_1 + x_6_7_1 + x_6_8_1 = 1
b55: x_6_0_2 + x_6_1_2 + x_6_2_2 + x_6_3_2 + x_6_4_2 + x_6_5_2 + x_6_6_2 + x_6_7_2 + x_6_8_2 = 1
b56: x_6_0_3 + x_6_1_3 + x_6_2_3 + x_6_3_3 + x_6_4_3 + x_6_5_3 + x_6_6_3 + x_6_7_3 + x_6_8_3 = 1
b57: x_6_0_4 + x_6_1_4 + x_6_2_4 + x_6_3_4 + x_6_4_4 + x_6_5_4 + x_6_6_4 + x_6_7_4 + x_6_8_4 = 1
b58: x_6_0_5 + x_6_1_5 + x_6_2_5 + x_6_3_5 + x_6_4_5 + x_6_5_5 + x_6_6_5 + x_6_7_5 + x_6_8_5 = 1
b59: x_6_0_6 + x_6_1_6 + x_6_2_6 + x_6_3_6 + x_6_4_6 + x_6_5_6 + x_6_6_6 + x_6_7_6 + x_6_8_6 = 1
b60: x_6_0_7 + x_6_1_7 + x_6_2_7 + x_6_3_7 + x_6_4_7 + x_6_5_7 + x_6_6_7 + x_6_7_7 + x_6_8_7 = 1
b61: x_6_0_8 + x_6_1_8 + x_6_2_8 + x_6_3_8 + x_6_4_8 + x_6_5_8 + x_6_6_8 + x_6_7_8 + x_6_8_8 = 1
b62: x_6_0_9 + x_6_1_9 + x_6_2_9 + x_6_3_9 + x_6_4_9 + x_6_5_9 + x_6_6_9 + x_6_7_9 + x_6_8_9 = 1
b63: x_7_0_1 + x_7_1_1 + x_7_2_1 + x_7_3_1 + x_7_4_1 + x_7_5_1 + x_7_6_1 + x_7_7_1 + x_7_8_1 = 1
b64: x_7_0_2 + x_7_1_2 + x_7_2_2 + x_7_3_2 + x_7_4_2 + x_7_5_2 + x_7_6_2 + x_7_7_2 + x_7_8_2 = 1
b65: x_7_0_3 + x_7_1_3 + x_7_2_3 + x_7_3_3 + x_7_4_3 + x_7_5_3 + x_7_6_3 + x_7_7_3 + x_7_8_3 = 1
b66: x_7_0_4 + x_7_1_4 + x_7_2_4 + x_7_3_4 + x_7_4_4 + x_7_5_4 + x_7_6_4 + x_7_7_4 + x_7_8_4 = 1
b67: x_7_0_5 + x_7_1_5 + x_7_2_5 + x_7_3_5 + x_7_4_5 + x_7_5_5 + x_7_6_5 + x_7_7_5 + x_7_8_5 = 1
b68: x_7_0_6 + x_7_1_6 + x_7_2_6 + x_7_3_6 + x_7_4_6 + x_7_5_6 + x_7_6_6 + x_7_7_6 + x_7_8_6 = 1
b69: x_7_0_7 + x_7_1_7 + x_7_2_7 + x_7_3_7 + x_7_4_7 + x_7_5_7 + x_7_6_7 + x_7_7_7 + x_7_8_7 = 1
b70: x_7_0_8 + x_7_1_8 + x_7_2_8 + x_7_3_8 + x_7_4_8 + x_7_5_8 + x_7_6_8 + x_7_7_8 + x_7_8_8 = 1
b71: x_7_0_9 + x_7_1_9 + x_7_2_9 + x_7_3_9 + x_7_4_9 + x_7_5_9 + x_7_6_9 + x_7_7_9 + x_7_8_9 = 1
b72: x_8_0_1 + x_8_1_1 + x_8_2_1 + x_8_3_1 + x_8_4_1 + x_8_5_1 + x_8_6_1 + x_8_7_1 + x_8_8_1 = 1
b73: x_8_0_2 + x_8_1_2 + x_8_2_2 + x_8_3_2 + x_8_4_2 + x_8_5_2 + x_8_6_2 + x_8_7_2 + x_8_8_2 = 1
b74: x_8_0_3 + x_8_1_3 + x_8_2_3 + x_8_3_3 + x_8_4_3 + x_8_5_3 + x_8_6_3 + x_8_7_3 + x_8_8_3 = 1
b75: x_8_0_4 + x_8_1_4 + x_8_2_4 + x_8_3_4 + x_8_4_4 + x_8_5_4 + x_8_6_4 + x_8_7_4 + x_8_8_4 = 1
b76: x_8_0_5 + x_8_1_5 + x_8_2_5 + x_8_3_5 + x_8_4_5 + x_8_5_5 + x_8_6_5 + x_8_7_5 + x_8_8_5 = 1
b77: x_8_0_6 + x_8_1_6 + x_8_2_6 + x_8_3_6 + x_8_4_6 + x_8_5_6 + x_8_6_6 + x_8_7_6 + x_8_8_6 = 1
b78: x_8_0_7 + x_8_1_7 + x_8_2_7 + x_8_3_7 + x_8_4_7 + x_8_5_7 + x_8_6_7 + x_8_7_7 + x_8_8_7 = 1
b79: x_8_0_8 + x_8_1_8 + x_8_2_8 + x_8_3_8 + x_8_4_8 + x_8_5_8 + x_8_6_8 + x_8_7_8 + x_8_8_8 = 1
b80: x_8_0_9 + x_8_1_9 + x_8_2_9 + x_8_3_9 + x_8_4_9 + x_8_5_9 + x_8_6_9 + x_8_7_9 + x_8_8_9 = 1
c0: x_0_0_1 + x_0_0_2 + x_0_0_3 + x_0_0_4 + x_0_0_5 + x_0_0_6 + x_0_0_7 + x_0_0_8 + x_0_0_9 = 1
c1: x_0_1_1 + x_0_1_2 + x_0_1_3 + x_0_1_4 + x_0_1_5 + x_0_1_6 + x_0_1_7 + x_0_1_8 + x_0_1_9 = 1
c2: x_0_2_1 + x_0_2_2 + x_0_2_3 + x_0_2_4 + x_0_2_5 + x_0_2_6 + x_0_2_7 + x_0_2_8 + x_0_2_9 = 1
c3: x_0_3_1 + x_0_3_2 + x_0_3_3 + x_0_3_4 + x_0_3_5 + x_0_3_6 + x_0_3_7 + x_0_3_8 + x_0_3_9 = 1
c4: x_0_4_1 + x_0_4_2 + x_0_4_3 + x_0_4_4 + x_0_4_5 + x_0_4_6 + x_0_4_7 + x_0_4_8 + x_0_4_9 = 1
c5: x_0_5_1 + x_0_5_2 + x_0_5_3 + x_0_5_4 + x_0_5_5 + x_0_5_6 + x_0_5_7 + x_0_5_8 + x_0_5_9 = 1
c6: x_0_6_1 + x_0_6_2 + x_0_6_3 + x_0_6_4 + x_0_6_5 + x_0_6_6 + x_0_6_7 + x_0_6_8 + x_0_6_9 = 1
c7: x_0_7_1 + x_0_7_2 + x_0_7_3 + x_0_7_4 + x_0_7_5 + x_0_7_6 + x_0_7_7 + x_0_7_8 + x_0_7_9 = 1
c8: x_0_8_1 + x_0_8_2 + x_0_8_3 + x_0_8_4 + x_0_8_5 + x_0_8_6 + x_0_8_7 + x_0_8_8 + x_0_8_9 = 1
c9: x_1_0_1 + x_1_0_2 + x_1_0_3 + x_1_0_4 + x_1_0_5 + x_1_0_6 + x_1_0_7 + x_1_0_8 + x_1_0_9 = 1
c10: x_1_1_1 + x_1_1_2 + x_1_1_3 + x_1_1_4 + x_1_1_5 + x_1_1_6 + x_1_1_7 + x_1_1_8 + x_1_1_9 = 1
c11: x_1_2_1 + x_1_2_2 + x_1_2_3 + x_1_2_4 + x_1_2_5 + x_1_2_6 + x_1_2_7 + x_1_2_8 + x_1_2_9 = 1
c12: x_1_3_1 + x_1_3_2 + x_1_3_3 + x_1_3_4 + x_1_3_5 + x_1_3_6 + x_1_3_7 + x_1_3_8 + x_1_3_9 = 1
c13: x_1_4_1 + x_1_4_2 + x_1_4_3 + x_1_4_4 + x_1_4_5 + x_1_4_6 + x_1_4_7 + x_1_4_8 + x_1_4_9 = 1
c14: x_1_5_1 + x_1_5_2 + x_1_5_3 + x_1_5_4 + x_1_5_5 + x_1_5_6 + x_1_5_7 + x_1_5_8 + x_1_5_9 = 1
c15: x_1_6_1 + x_1_6_2 + x_1_6_3 + x_1_6_4 + x_1_6_5 + x_1_6_6 + x_1_6_7 + x_1_6_8 + x_1_6_9 = 1
c16: x_1_7_1 + x_1_7_2 + x_1_7_3 + x_1_7_4 + x_1_7_5 + x_1_7_6 + x_1_7_7 + x_1_7_8 + x_1_7_9 = 1
c17: x_1_8_1 + x_1_8_2 + x_1_8_3 + x_1_8_4 + x_1_8_5 + x_1_8_6 + x_1_8_7 + x_1_8_8 + x_1_8_9 = 1
c18: x_2_0_1 + x_2_0_2 + x_2_0_3 + x_2_0_4 + x_2_0_5 + x_2_0_6 + x_2_0_7 + x_2_0_8 + x_2_0_9 = 1
c19: x_2_1_1 + x_2_1_2 + x_2_1_3 + x_2_1_4 + x_2_1_5 + x_2_1_6 + x_2_1_7 + x_2_1_8 + x_2_1_9 = 1
c20: x_2_2_1 + x_2_2_2 + x_2_2_3 + x_2_2_4 + x_2_2_5 + x_2_2_6 + x_2_2_7 + x_2_2_8 + x_2_2_9 = 1
c21: x_2_3_1 + x_2_3_2 + x_2_3_3 + x_2_3_4 + x_2_3_5 + x_2_3_6 + x_2_3_7 + x_2_3_8 + x_2_3_9 = 1
c22: x_2_4_1 + x_2_4_2 + x_2_4_3 + x_2_4_4 + x_2_4_5 + x_2_4_6 + x_2_4_7 + x_2_4_8 + x_2_4_9 = 1
c23: x_2_5_1 + x_2_5_2 + x_2_5_3 + x_2_5_4 + x_2_5_5 + x_2_5_6 + x_2_5_7 + x_2_5_8 + x_2_5_9 = 1
c24: x_2_6_1 + x_2_6_2 + x_2_6_3 + x_2_6_4 + x_2_6_5 + x_2_6_6 + x_2_6_7 + x_2_6_8 + x_2_6_9 = 1
c25: x_2_7_1 + x_2_7_2 + x_2_7_3 + x_2_7_4 + x_2_7_5 + x_2_7_6 + x_2_7_7 + x_2_7_8 + x_2_7_9 = 1
c26: x_2_8_1 + x_2_8_2 + x_2_8_3 + x_2_8_4 + x_2_8_5 + x_2_8_6 + x_2_8_7 + x_2_8_8 + x_2_8_9 = 1
c27: x_3_0_1 + x_3_0_2 + x_3_0_3 + x_3_0_4 + x_3_0_5 + x_3_0_6 + x_3_0_7 + x_3_0_8 + x_3_0_9 = 1
c28: x_3_1_1 + x_3_1_2 + x_3_1_3 + x_3_1_4 + x_3_1_5 + x_3_1_6 + x_3_1_7 + x_3_1_8 + x_3_1_9 = 1
c29: x_3_2_1 + x_3_2_2 + x_3_2_3 + x_3_2_4 + x_3_2_5 + x_3_2_6 + x_3_2_7 + x_3_2_8 + x_3_2_9 = 1
c30: x_3_3_1 + x_3_3_2 + x_3_3_3 + x_3_3_4 + x_3_3_5 + x_3_3_6 + x_3_3_7 + x_3_3_8 + x_3_3_9 = 1
c31: x_3_4_1 + x_3_4_2 + x_3_4_3 + x_3_4_4 + x_3_4_5 + x_3_4_6 + x_3_4_7 + x_3_4_8 + x_3_4_9 = 1
c32: x_3_5_1 + x_3_5_2 + x_3_5_3 + x_3_5_4 + x_3_5_5 + x_3_5_6 + x_3_5_7 + x_3_5_8 + x_3_5_9 = 1
c33: x_3_6_1 + x_3_6_2 + x_3_6_3 + x_3_6_4 + x_3_6_5 + x_3_6_6 + x_3_6_7 + x_3_6_8 + x_3_6_9 = 1
c34: x_3_7_1 + x_3_7_2 + x_3_7_3 + x_3_7_4 + x_3_7_5 + x_3_7_6 + x_3_7_7 + x_3_7_8 + x_3_7_9 = 1
c35: x_3_8_1 + x_3_8_2 + x_3_8_3 + x_3_8_4 + x_3_8_5 + x_3_8_6 + x_3_8_7 + x_3_8_8 + x_3_8_9 = 1
c36: x_4_0_1 + x_4_0_2 + x_4_0_3 + x_4_0_4 + x_4_0_5 + x_4_0_6 + x_4_0_7 + x_4_0_8 + x_4_0_9 = 1
c37: x_4_1_1 + x_4_1_2 + x_4_1_3 + x_4_1_4 + x_4_1_5 + x_4_1_6 + x_4_1_7 + x_4_1_8 + x_4_1_9 = 1
c38: x_4_2_1 + x_4_2_2 + x_4_2_3 + x_4_2_4 + x_4_2_5 + x_4_2_6 + x_4_2_7 + x_4_2_8 + x_4_2_9 = 1
c39: x_4_3_1 + x_4_3_2 + x_4_3_3 + x_4_3_4 + x_4_3_5 + x_4_3_6 + x_4_3_7 + x_4_3_8 + x_4_3_9 = 1
c40: x_4_4_1 + x_4_4_2 + x_4_4_3 + x_4_4_4 + x_4_4_5 + x_4_4_6 + x_4_4_7 + x_4_4_8 + x_4_4_9 = 1
c41: x_4_5_1 + x_4_5_2 + x_4_5_3 + x_4_5_4 + x_4_5_5 + x_4_5_6 + x_4_5_7 + x_4_5_8 + x_4_5_9 = 1
c42: x_4_6_1 + x_4_6_2 + x_4_6_3 + x_4_6_4 + x_4_6_5 + x_4_6_6 + x_4_6_7 + x_4_6_8 + x_4_6_9 = 1
c43: x_4_7_1 + x_4_7_2 + x_4_7_3 + x_4_7_4 + x_4_7_5 + x_4_7_6 + x_4_7_7 + x_4_7_8 + x_4_7_9 = 1
c44: x_4_8_1 + x_4_8_2 + x_4_8_3 + x_4_8_4 + x_4_8_5 + x_4_8_6 + x_4_8_7 + x_4_8_8 + x_4_8_9 = 1
c45: x_5_0_1 + x_5_0_2 + x_5_0_3 + x_5_0_4 + x_5_0_5 + x_5_0_6 + x_5_0_7 + x_5_0_8 + x_5_0_9 = 1
c46: x_5_1_1 + x_5_1_2 + x_5_1_3 + x_5_1_4 + x_5_1_5 + x_5_1_6 + x_5_1_7 + x_5_1_8 + x_5_1_9 = 1
c47: x_5_2_1 + x_5_2_2 + x_5_2_3 + x_5_2_4 + x_5_2_5 + x_5_2_6 + x_5_2_7 + x_5_2_8 + x_5_2_9 = 1
c48: x_5_3_1 + x_5_3_2 + x_5_3_3 + x_5_3_4 + x_5_3_5 + x_5_3_6 + x_5_3_7 + x_5_3_8 + x_5_3_9 = 1
c49: x_5_4_1 + x_5_4_2 + x_5_4_3 + x_5_4_4 + x_5_4_5 + x_5_4_6 + x_5_4_7 + x_5_4_8 + x_5_4_9 = 1
c50: x_5_5_1 + x_5_5_2 + x_5_5_3 + x_5_5_4 + x_5_5_5 + x_5_5_6 + x_5_5_7 + x_5_5_8 + x_5_5_9 = 1
c51: x_5_6_1 + x_5_6_2 + x_5_6_3 + x_5_6_4 + x_5_6_5 + x_5_6_6 + x_5_6_7 + x_5_6_8 + x_5_6_9 = 1
c52: x_5_7_1 + x_5_7_2 + x_5_7_3 + x_5_7_4 + x_5_7_5 + x_5_7_6 + x_5_7_7 + x_5_7_8 + x_5_7_9 = 1
c53: x_5_8_1 + x_5_8_2 + x_5_8_3 + x_5_8_4 + x_5_8_5 + x_5_8_6 + x_5_8_7 + x_5_8_8 + x_5_8_9 = 1
c54: x_6_0_1 + x_6_0_2 + x_6_0_3 + x_6_0_4 + x_6_0_5 + x_6_0_6 + x_6_0_7 + x_6_0_8 + x_6_0_9 = 1
c55: x_6_1_1 + x_6_1_2 + x_6_1_3 + x_6_1_4 + x_6_1_5 + x_6_1_6 + x_6_1_7 + x_6_1_8 + x_6_1_9 = 1
c56: x_6_2_1 + x_6_2_2 + x_6_2_3 + x_6_2_4 + x_6_2_5 + x_6_2_6 + x_6_2_7 + x_6_2_8 + x_6_2_9 = 1
c57: x_6_3_1 + x_6_3_2 + x_6_3_3 + x_6_3_4 + x_6_3_5 + x_6_3_6 + x_6_3_7 + x_6_3_8 + x_6_3_9 = 1
c58: x_6_4_1 + x_6_4_2 + x_6_4_3 + x_6_4_4 + x_6_4_5 + x_6_4_6 + x_6_4_7 + x_6_4_8 + x_6_4_9 = 1
c59: x_6_5_1 + x_6_5_2 + x_6_5_3 + x_6_5_4 + x_6_5_5 + x_6_5_6 + x_6_5_7 + x_6_5_8 + x_6_5_9 = 1
c60: x_6_6_1 + x_6_6_2 + x_6_6_3 + x_6_6_4 + x_6_6_5 + x_6_6_6 + x_6_6_7 + x_6_6_8 + x_6_6_9 = 1
c61: x_6_7_1 + x_6_7_2 + x_6_7_3 + x_6_7_4 + x_6_7_5 + x_6_7_6 + x_6_7_7 + x_6_7_8 + x_6_7_9 = 1
c62: x_6_8_1 + x_6_8_2 + x_6_8_3 + x_6_8_4 + x_6_8_5 + x_6_8_6 + x_6_8_7 + x_6_8_8 + x_6_8_9 = 1
c63: x_7_0_1 + x_7_0_2 + x_7_0_3 + x_7_0_4 + x_7_0_5 + x_7_0_6 + x_7_0_7 + x_7_0_8 + x_7_0_9 = 1
c64: x_7_1_1 + x_7_1_2 + x_7_1_3 + x_7_1_4 + x_7_1_5 + x_7_1_6 + x_7_1_7 + x_7_1_8 + x_7_1_9 = 1
c65: x_7_2_1 + x_7_2_2 + x_7_2_3 + x_7_2_4 + x_7_2_5 + x_7_2_6 + x_7_2_7 + x_7_2_8 + x_7_2_9 = 1
c66: x_7_3_1 + x_7_3_2 + x_7_3_3 + x_7_3_4 + x_7_3_5 + x_7_3_6 + x_7_3_7 + x_7_3_8 + x_7_3_9 = 1
c67: x_7_4_1 + x_7_4_2 + x_7_4_3 + x_7_4_4 + x_7_4_5 + x_7_4_6 + x_7_4_7 + x_7_4_8 + x_7_4_9 = 1
c68: x_7_5_1 + x_7_5_2 + x_7_5_3 + x_7_5_4 + x_7_5_5 + x_7_5_6 + x_7_5_7 + x_7_5_8 + x_7_5_9 = 1
c69: x_7_6_1 + x_7_6_2 + x_7_6_3 + x_7_6_4 + x_7_6_5 + x_7_6_6 + x_7_6_7 + x_7_6_8 + x_7_6_9 = 1
c70: x_7_7_1 + x_7_7_2 + x_7_7_3 + x_7_7_4 + x_7_7_5 + x_7_7_6 + x_7_7_7 + x_7_7_8 + x_7_7_9 = 1
c71: x_7_8_1 + x_7_8_2 + x_7_8_3 + x_7_8_4 + x_7_8_5 + x_7_8_6 + x_7_8_7 + x_7_8_8 + x_7_8_9 = 1
c72: x_8_0_1 + x_8_0_2 + x_8_0_3 + x_8_0_4 + x_8_0_5 + x_8_0_6 + x_8_0_7 + x_8_0_8 + x_8_0_9 = 1
c73: x_8_1_1 + x_8_1_2 + x_8_1_3 + x_8_1_4 + x_8_1_5 + x_8_1_6 + x_8_1_7 + x_8_1_8 + x_8_1_9 = 1
c74: x_8_2_1 + x_8_2_2 + x_8_2_3 + x_8_2_4 + x_8_2_5 + x_8_2_6 + x_8_2_7 + x_8_2_8 + x_8_2_9 = 1
c75: x_8_3_1 + x_8_3_2 + x_8_3_3 + x_8_3_4 + x_8_3_5 + x_8_3_6 + x_8_3_7 + x_8_3_8 + x_8_3_9 = 1
c76: x_8_4_1 + x_8_4_2 + x_8_4_3 + x_8_4_4 + x_8_4_5 + x_8_4_6 + x_8_4_7 + x_8_4_8 + x_8_4_9 = 1
c77: x_8_5_1 + x_8_5_2 + x_8_5_3 + x_8_5_4 + x_8_5_5 + x_8_5_6 + x_8_5_7 + x_8_5_8 + x_8_5_9 = 1
c78: x_8_6_1 + x_8_6_2 + x_8_6_3 + x_8_6_4 + x_8_6_5 + x_8_6_6 + x_8_6_7 + x_8_6_8 + x_8_6_9 = 1
c79: x_8_7_1 + x_8_7_2 + x_8_7_3 + x_8_7_4 + x_8_7_5 + x_8_7_6 + x_8_7_7 + x_8_7_8 + x_8_7_9 = 1
c80: x_8_8_1 + x_8_8_2 + x_8_8_3 + x_8_8_4 + x_8_8_5 + x_8_8_6 + x_8_8_7 + x_8_8_8 + x_8_8_9 = 1
d0: x_0_0_1 + x_0_1_1 + x_0_2_1 + x_1_0_1 + x_1_1_1 + x_1_2_1 + x_2_0_1 + x_2_1_1 + x_2_2_1 = 1
d1: x_0_0_2 + x_0_1_2 + x_0_2_2 + x_1_0_2 + x_1_1_2 + x_1_2_2 + x_2_0_2 + x_2_1_2 + x_2_2_2 = 1
d2: x_0_0_3 + x_0_1_3 + x_0_2_3 + x_1_0_3 + x_1_1_3 + x_1_2_3 + x_2_0_3 + x_2_1_3 + x_2_2_3 = 1
d3: x_0_0_4 + x_0_1_4 + x_0_2_4 + x_1_0_4 + x_1_1_4 + x_1_2_4 + x_2_0_4 + x_2_1_4 + x_2_2_4 = 1
d4: x_0_0_5 + x_0_1_5 + x_0_2_5 + x_1_0_5 + x_1_1_5 + x_1_2_5 + x_2_0_5 + x_2_1_5 + x_2_2_5 = 1
d5: x_0_0_6 + x_0_1_6 + x_0_2_6 + x_1_0_6 + x_1_1_6 + x_1_2_6 + x_2_0_6 + x_2_1_6 + x_2_2_6 = 1
d6: x_0_0_7 + x_0_1_7 + x_0_2_7 + x_1_0_7 + x_1_1_7 + x_1_2_7 + x_2_0_7 + x_2_1_7 + x_2_2_7 = 1
d7: x_0_0_8 + x_0_1_8 + x_0_2_8 + x_1_0_8 + x_1_1_8 + x_1_2_8 + x_2_0_8 + x_2_1_8 + x_2_2_8 = 1
d8: x_0_0_9 + x_0_1_9 + x_0_2_9 + x_1_0_9 + x_1_1_9 + x_1_2_9 + x_2_0_9 + x_2_1_9 + x_2_2_9 = 1
d9: x_0_3_1 + x_0_4_1 + x_0_5_1 + x_1_3_1 + x_1_4_1 + x_1_5_1 + x_2_3_1 + x_2_4_1 + x_2_5_1 = 1
d10: x_0_3_2 + x_0_4_2 + x_0_5_2 + x_1_3_2 + x_1_4_2 + x_1_5_2 + x_2_3_2 + x_2_4_2 + x_2_5_2 = 1
d11: x_0_3_3 + x_0_4_3 + x_0_5_3 + x_1_3_3 + x_1_4_3 + x_1_5_3 + x_2_3_3 + x_2_4_3 + x_2_5_3 = 1
d12: x_0_3_4 + x_0_4_4 + x_0_5_4 + x_1_3_4 + x_1_4_4 + x_1_5_4 + x_2_3_4 + x_2_4_4 + x_2_5_4 = 1
d13: x_0_3_5 + x_0_4_5 + x_0_5_5 + x_1_3_5 + x_1_4_5 + x_1_5_5 + x_2_3_5 + x_2_4_5 + x_2_5_5 = 1
d14: x_0_3_6 + x_0_4_6 + x_0_5_6 + x_1_3_6 + x_1_4_6 + x_1_5_6 + x_2_3_6 + x_2_4_6 + x_2_5_6 = 1
d15: x_0_3_7 + x_0_4_7 + x_0_5_7 + x_1_3_7 + x_1_4_7 + x_1_5_7 + x_2_3_7 + x_2_4_7 + x_2_5_7 = 1
d16: x_0_3_8 + x_0_4_8 + x_0_5_8 + x_1_3_8 + x_1_4_8 + x_1_5_8 + x_2_3_8 + x_2_4_8 + x_2_5_8 = 1
d17: x_0_3_9 + x_0_4_9 + x_0_5_9 + x_1_3_9 + x_1_4_9 + x_1_5_9 + x_2_3_9 + x_2_4_9 + x_2_5_9 = 1
d18: x_0_6_1 + x_0_7_1 + x_0_8_1 + x_1_6_1 + x_1_7_1 + x_1_8_1 + x_2_6_1 + x_2_7_1 + x_2_8_1 = 1
d19: x_0_6_2 + x_0_7_2 + x_0_8_2 + x_1_6_2 + x_1_7_2 + x_1_8_2 + x_2_6_2 + x_2_7_2 + x_2_8_2 = 1
d20: x_0_6_3 + x_0_7_3 + x_0_8_3 + x_1_6_3 + x_1_7_3 + x_1_8_3 + x_2_6_3 + x_2_7_3 + x_2_8_3 = 1
d21: x_0_6_4 + x_0_7_4 + x_0_8_4 + x_1_6_4 + x_1_7_4 + x_1_8_4 + x_2_6_4 + x_2_7_4 + x_2_8_4 = 1
d22: x_0_6_5 + x_0_7_5 + x_0_8_5 + x_1_6_5 + x_1_7_5 + x_1_8_5 + x_2_6_5 + x_2_7_5 + x_2_8_5 = 1
d23: x_0_6_6 + x_0_7_6 + x_0_8_6 + x_1_6_6 + x_1_7_6 + x_1_8_6 + x_2_6_6 + x_2_7_6 + x_2_8_6 = 1
d24: x_0_6_7 + x_0_7_7 + x_0_8_7 + x_1_6_7 + x_1_7_7 + x_1_8_7 + x_2_6_7 + x_2_7_7 + x_2_8_7 = 1
d25: x_0_6_8 + x_0_7_8 + x_0_8_8 + x_1_6_8 + x_1_7_8 + x_1_8_8 + x_2_6_8 + x_2_7_8 + x_2_8_8 = 1
d26: x_0_6_9 + x_0_7_9 + x_0_8_9 + x_1_6_9 + x_1_7_9 + x_1_8_9 + x_2_6_9 + x_2_7_9 + x_2_8_9 = 1
d27: x_3_0_1 + x_3_1_1 + x_3_2_1 + x_4_0_1 + x_4_1_1 + x_4_2_1 + x_5_0_1 + x_5_1_1 + x_5_2_1 = 1
d28: x_3_0_2 + x_3_1_2 + x_3_2_2 + x_4_0_2 + x_4_1_2 + x_4_2_2 + x_5_0_2 + x_5_1_2 + x_5_2_2 = 1
d29: x_3_0_3 + x_3_1_3 + x_3_2_3 + x_4_0_3 + x_4_1_3 + x_4_2_3 + x_5_0_3 + x_5_1_3 + x_5_2_3 = 1
d30: x_3_0_4 + x_3_1_4 + x_3_2_4 + x_4_0_4 + x_4_1_4 + x_4_2_4 + x_5_0_4 + x_5_1_4 + x_5_2_4 = 1
d31: x_3_0_5 + x_3_1_5 + x_3_2_5 + x_4_0_5 + x_4_1_5 + x_4_2_5 + x_5_0_5 + x_5_1_5 + x_5_2_5 = 1
d32: x_3_0_6 + x_3_1_6 + x_3_2_6 + x_4_0_6 + x_4_1_6 + x_4_2_6 + x_5_0_6 + x_5_1_6 + x_5_2_6 = 1
d33: x_3_0_7 + x_3_1_7 + x_3_2_7 + x_4_0_7 + x_4_1_7 + x_4_2_7 + x_5_0_7 + x_5_1_7 + x_5_2_7 = 1
d34: x_3_0_8 + x_3_1_8 + x_3_2_8 + x_4_0_8 + x_4_1_8 + x_4_2_8 + x_5_0_8 + x_5_1_8 + x_5_2_8 = 1
d35: x_3_0_9 + x_3_1_9 + x_3_2_9 + x_4_0_9 + x_4_1_9 + x_4_2_9 + x_5_0_9 + x_5_1_9 + x_5_2_9 = 1
d36: x_3_3_1 + x_3_4_1 + x_3_5_1 + x_4_3_1 + x_4_4_1 + x_4_5_1 + x_5_3_1 + x_5_4_1 + x_5_5_1 = 1
d37: x_3_3_2 + x_3_4_2 + x_3_5_2 + x_4_3_2 + x_4_4_2 + x_4_5_2 + x_5_3_2 + x_5_4_2 + x_5_5_2 = 1
d38: x_3_3_3 + x_3_4_3 + x_3_5_3 + x_4_3_3 + x_4_4_3 + x_4_5_3 + x_5_3_3 + x_5_4_3 + x_5_5_3 = 1
d39: x_3_3_4 + x_3_4_4 + x_3_5_4 + x_4_3_4 + x_4_4_4 + x_4_5_4 + x_5_3_4 + x_5_4_4 + x_5_5_4 = 1
d40: x_3_3_5 + x_3_4_5 + x_3_5_5 + x_4_3_5 + x_4_4_5 + x_4_5_5 + x_5_3_5 + x_5_4_5 + x_5_5_5 = 1
d41: x_3_3_6 + x_3_4_6 + x_3_5_6 + x_4_3_6 + x_4_4_6 + x_4_5_6 + x_5_3_6 + x_5_4_6 + x_5_5_6 = 1
d42: x_3_3_7 + x_3_4_7 + x_3_5_7 + x_4_3_7 + x_4_4_7 + x_4_5_7 + x_5_3_7 + x_5_4_7 + x_5_5_7 = 1
d43: x_3_3_8 + x_3_4_8 + x_3_5_8 + x_4_3_8 + x_4_4_8 + x_4_5_8 + x_5_3_8 + x_5_4_8 + x_5_5_8 = 1
d44: x_3_3_9 + x_3_4_9 + x_3_5_9 + x_4_3_9 + x_4_4_9 + x_4_5_9 + x_5_3_9 + x_5_4_9 + x_5_5_9 = 1
d45: x_3_6_1 + x_3_7_1 + x_3_8_1 + x_4_6_1 + x_4_7_1 + x_4_8_1 + x_5_6_1 + x_5_7_1 + x_5_8_1 = 1
d46: x_3_6_2 + x_3_7_2 + x_3_8_2 + x_4_6_2 + x_4_7_2 + x_4_8_2 + x_5_6_2 + x_5_7_2 + x_5_8_2 = 1
d47: x_3_6_3 + x_3_7_3 + x_3_8_3 + x_4_6_3 + x_4_7_3 + x_4_8_3 + x_5_6_3 + x_5_7_3 + x_5_8_3 = 1
d48: x_3_6_4 + x_3_7_4 + x_3_8_4 + x_4_6_4 + x_4_7_4 + x_4_8_4 + x_5_6_4 + x_5_7_4 + x_5_8_4 = 1
d49: x_3_6_5 + x_3_7_5 + x_3_8_5 + x_4_6_5 + x_4_7_5 + x_4_8_5 + x_5_6_5 + x_5_7_5 + x_5_8_5 = 1
d50: x_3_6_6 + x_3_7_6 + x_3_8_6 + x_4_6_6 + x_4_7_6 + x_4_8_6 + x_5_6_6 + x_5_7_6 + x_5_8_6 = 1
d51: x_3_6_7 + x_3_7_7 + x_3_8_7 + x_4_6_7 + x_4_7_7 + x_4_8_7 + x_5_6_7 + x_5_7_7 + x_5_8_7 = 1
d52: x_3_6_8 + x_3_7_8 + x_3_8_8 + x_4_6_8 + x_4_7_8 + x_4_8_8 + x_5_6_8 + x_5_7_8 + x_5_8_8 = 1
d53: x_3_6_9 + x_3_7_9 + x_3_8_9 + x_4_6_9 + x_4_7_9 + x_4_8_9 + x_5_6_9 + x_5_7_9 + x_5_8_9 = 1
d54: x_6_0_1 + x_6_1_1 + x_6_2_1 + x_7_0_1 + x_7_1_1 + x_7_2_1 + x_8_0_1 + x_8_1_1 + x_8_2_1 = 1
d55: x_6_0_2 + x_6_1_2 + x_6_2_2 + x_7_0_2 + x_7_1_2 + x_7_2_2 + x_8_0_2 + x_8_1_2 + x_8_2_2 = 1
d56: x_6_0_3 + x_6_1_3 + x_6_2_3 + x_7_0_3 + x_7_1_3 + x_7_2_3 + x_8_0_3 + x_8_1_3 + x_8_2_3 = 1
d57: x_6_0_4 + x_6_1_4 + x_6_2_4 + x_7_0_4 + x_7_1_4 + x_7_2_4 + x_8_0_4 + x_8_1_4 + x_8_2_4 = 1
d58: x_6_0_5 + x_6_1_5 + x_6_2_5 + x_7_0_5 + x_7_1_5 + x_7_2_5 + x_8_0_5 + x_8_1_5 + x_8_2_5 = 1
d59: x_6_0_6 + x_6_1_6 + x_6_2_6 + x_7_0_6 + x_7_1_6 + x_7_2_6 + x_8_0_6 + x_8_1_6 + x_8_2_6 = 1
d60: x_6_0_7 + x_6_1_7 + x_6_2_7 + x_7_0_7 + x_7_1_7 + x_7_2_7 + x_8_0_7 + x_8_1_7 + x_8_2_7 = 1
d61: x_6_0_8 + x_6_1_8 + x_6_2_8 + x_7_0_8 + x_7_1_8 + x_7_2_8 + x_8_0_8 + x_8_1_8 + x_8_2_8 = 1
d62: x_6_0_9 + x_6_1_9 + x_6_2_9 + x_7_0_9 + x_7_1_9 + x_7_2_9 + x_8_0_9 + x_8_1_9 + x_8_2_9 = 1
d63: x_6_3_1 + x_6_4_1 + x_6_5_1 + x_7_3_1 + x_7_4_1 + x_7_5_1 + x_8_3_1 + x_8_4_1 + x_8_5_1 = 1
d64: x_6_3_2 + x_6_4_2 + x_6_5_2 + x_7_3_2 + x_7_4_2 + x_7_5_2 + x_8_3_2 + x_8_4_2 + x_8_5_2 = 1
d65: x_6_3_3 + x_6_4_3 + x_6_5_3 + x_7_3_3 + x_7_4_3 + x_7_5_3 + x_8_3_3 + x_8_4_3 + x_8_5_3 = 1
d66: x_6_3_4 + x_6_4_4 + x_6_5_4 + x_7_3_4 + x_7_4_4 + x_7_5_4 + x_8_3_4 + x_8_4_4 + x_8_5_4 = 1
d67: x_6_3_5 + x_6_4_5 + x_6_5_5 + x_7_3_5 + x_7_4_5 + x_7_5_5 + x_8_3_5 + x_8_4_5 + x_8_5_5 = 1
d68: x_6_3_6 + x_6_4_6 + x_6_5_6 + x_7_3_6 + x_7_4_6 + x_7_5_6 + x_8_3_6 + x_8_4_6 + x_8_5_6 = 1
d69: x_6_3_7 + x_6_4_7 + x_6_5_7 + x_7_3_7 + x_7_4_7 + x_7_5_7 + x_8_3_7 + x_8_4_7 + x_8_5_7 = 1
d70: x_6_3_8 + x_6_4_8 + x_6_5_8 + x_7_3_8 + x_7_4_8 + x_7_5_8 + x_8_3_8 + x_8_4_8 + x_8_5_8 = 1
d71: x_6_3_9 + x_6_4_9 + x_6_5_9 + x_7_3_9 + x_7_4_9 + x_7_5_9 + x_8_3_9 + x_8_4_9 + x_8_5_9 = 1
d72: x_6_6_1 + x_6_7_1 + x_6_8_1 + x_7_6_1 + x_7_7_1 + x_7_8_1 + x_8_6_1 + x_8_7_1 + x_8_8_1 = 1
d73: x_6_6_2 + x_6_7_2 + x_6_8_2 + x_7_6_2 + x_7_7_2 + x_7_8_2 + x_8_6_2 + x_8_7_2 + x_8_8_2 = 1
d74: x_6_6_3 + x_6_7_3 + x_6_8_3 + x_7_6_3 + x_7_7_3 + x_7_8_3 + x_8_6_3 + x_8_7_3 + x_8_8_3 = 1
d75: x_6_6_4 + x_6_7_4 + x_6_8_4 + x_7_6_4 + x_7_7_4 + x_7_8_4 + x_8_6_4 + x_8_7_4 + x_8_8_4 = 1
d76: x_6_6_5 + x_6_7_5 + x_6_8_5 + x_7_6_5 + x_7_7_5 + x_7_8_5 + x_8_6_5 + x_8_7_5 + x_8_8_5 = 1
d77: x_6_6_6 + x_6_7_6 + x_6_8_6 + x_7_6_6 + x_7_7_6 + x_7_8_6 + x_8_6_6 + x_8_7_6 + x_8_8_6 = 1
d78: x_6_6_7 + x_6_7_7 + x_6_8_7 + x_7_6_7 + x_7_7_7 + x_7_8_7 + x_8_6_7 + x_8_7_7 + x_8_8_7 = 1
d79: x_6_6_8 + x_6_7_8 + x_6_8_8 + x_7_6_8 + x_7_7_8 + x_7_8_8 + x_8_6_8 + x_8_7_8 + x_8_8_8 = 1
d80: x_6_6_9 + x_6_7_9 + x_6_8_9 + x_7_6_9 + x_7_7_9 + x_7_8_9 + x_8_6_9 + x_8_7_9 + x_8_8_9 = 1
e0: x_0_1_6 = 1
f0: x_0_2_3 = 1
g0: x_0_4_8 = 1
h0: x_0_6_4 = 1
p0: x_1_1_9 = 1
q0: x_1_5_4 = 1
ba0: x_1_8_7 = 1
bb0: x_2_0_4 = 1
bc0: x_2_4_2 = 1
bd0: x_3_2_7 = 1
be0: x_3_3_2 = 1
bf0: x_3_5_3 = 1
bg0: x_3_7_5 = 1
bh0: x_3_8_8 = 1
bp0: x_4_1_5 = 1
bq0: x_4_4_4 = 1
ca0: x_5_2_8 = 1
cb0: x_5_6_2 = 1
cc0: x_5_8_4 = 1
cd0: x_6_0_6 = 1
ce0: x_6_6_7 = 1
cf0: x_7_2_5 = 1
cg0: x_7_4_3 = 1
ch0: x_7_5_6 = 1
cp0: x_8_1_3 = 1
cq0: x_8_3_8 = 1
da0: x_8_3_8 = 1
db0: x_8_4_7 = 1
dc0: x_8_7_2 = 1
dd0: x_8_8_6 = 1




Binary

x_0_0_1 x_0_0_2 x_0_0_3 x_0_0_4 x_0_0_5 x_0_0_6 x_0_0_7 x_0_0_8 x_0_0_9 x_0_1_1 x_0_1_2 x_0_1_3 x_0_1_4 x_0_1_5 x_0_1_6 x_0_1_7 x_0_1_8 x_0_1_9 x_0_2_1 x_0_2_2 x_0_2_3 x_0_2_4 x_0_2_5 x_0_2_6 x_0_2_7 x_0_2_8 x_0_2_9 x_0_3_1 x_0_3_2 x_0_3_3 x_0_3_4 x_0_3_5 x_0_3_6 x_0_3_7 x_0_3_8 x_0_3_9 x_0_4_1 x_0_4_2 x_0_4_3 x_0_4_4 x_0_4_5 x_0_4_6 x_0_4_7 x_0_4_8 x_0_4_9 x_0_5_1 x_0_5_2 x_0_5_3 x_0_5_4 x_0_5_5 x_0_5_6 x_0_5_7 x_0_5_8 x_0_5_9 x_0_6_1 x_0_6_2 x_0_6_3 x_0_6_4 x_0_6_5 x_0_6_6 x_0_6_7 x_0_6_8 x_0_6_9 x_0_7_1 x_0_7_2 x_0_7_3 x_0_7_4 x_0_7_5 x_0_7_6 x_0_7_7 x_0_7_8 x_0_7_9 x_0_8_1 x_0_8_2 x_0_8_3 x_0_8_4 x_0_8_5 x_0_8_6 x_0_8_7 x_0_8_8 x_0_8_9 x_1_0_1 x_1_0_2 x_1_0_3 x_1_0_4 x_1_0_5 x_1_0_6 x_1_0_7 x_1_0_8 x_1_0_9 x_1_1_1 x_1_1_2 x_1_1_3 x_1_1_4 x_1_1_5 x_1_1_6 x_1_1_7 x_1_1_8 x_1_1_9 x_1_2_1 x_1_2_2 x_1_2_3 x_1_2_4 x_1_2_5 x_1_2_6 x_1_2_7 x_1_2_8 x_1_2_9 x_1_3_1 x_1_3_2 x_1_3_3 x_1_3_4 x_1_3_5 x_1_3_6 x_1_3_7 x_1_3_8 x_1_3_9 x_1_4_1 x_1_4_2 x_1_4_3 x_1_4_4 x_1_4_5 x_1_4_6 x_1_4_7 x_1_4_8 x_1_4_9 x_1_5_1 x_1_5_2 x_1_5_3 x_1_5_4 x_1_5_5 x_1_5_6 x_1_5_7 x_1_5_8 x_1_5_9 x_1_6_1 x_1_6_2 x_1_6_3 x_1_6_4 x_1_6_5 x_1_6_6 x_1_6_7 x_1_6_8 x_1_6_9 x_1_7_1 x_1_7_2 x_1_7_3 x_1_7_4 x_1_7_5 x_1_7_6 x_1_7_7 x_1_7_8 x_1_7_9 x_1_8_1 x_1_8_2 x_1_8_3 x_1_8_4 x_1_8_5 x_1_8_6 x_1_8_7 x_1_8_8 x_1_8_9 x_2_0_1 x_2_0_2 x_2_0_3 x_2_0_4 x_2_0_5 x_2_0_6 x_2_0_7 x_2_0_8 x_2_0_9 x_2_1_1 x_2_1_2 x_2_1_3 x_2_1_4 x_2_1_5 x_2_1_6 x_2_1_7 x_2_1_8 x_2_1_9 x_2_2_1 x_2_2_2 x_2_2_3 x_2_2_4 x_2_2_5 x_2_2_6 x_2_2_7 x_2_2_8 x_2_2_9 x_2_3_1 x_2_3_2 x_2_3_3 x_2_3_4 x_2_3_5 x_2_3_6 x_2_3_7 x_2_3_8 x_2_3_9 x_2_4_1 x_2_4_2 x_2_4_3 x_2_4_4 x_2_4_5 x_2_4_6 x_2_4_7 x_2_4_8 x_2_4_9 x_2_5_1 x_2_5_2 x_2_5_3 x_2_5_4 x_2_5_5 x_2_5_6 x_2_5_7 x_2_5_8 x_2_5_9 x_2_6_1 x_2_6_2 x_2_6_3 x_2_6_4 x_2_6_5 x_2_6_6 x_2_6_7 x_2_6_8 x_2_6_9 x_2_7_1 x_2_7_2 x_2_7_3 x_2_7_4 x_2_7_5 x_2_7_6 x_2_7_7 x_2_7_8 x_2_7_9 x_2_8_1 x_2_8_2 x_2_8_3 x_2_8_4 x_2_8_5 x_2_8_6 x_2_8_7 x_2_8_8 x_2_8_9 x_3_0_1 x_3_0_2 x_3_0_3 x_3_0_4 x_3_0_5 x_3_0_6 x_3_0_7 x_3_0_8 x_3_0_9 x_3_1_1 x_3_1_2 x_3_1_3 x_3_1_4 x_3_1_5 x_3_1_6 x_3_1_7 x_3_1_8 x_3_1_9 x_3_2_1 x_3_2_2 x_3_2_3 x_3_2_4 x_3_2_5 x_3_2_6 x_3_2_7 x_3_2_8 x_3_2_9 x_3_3_1 x_3_3_2 x_3_3_3 x_3_3_4 x_3_3_5 x_3_3_6 x_3_3_7 x_3_3_8 x_3_3_9 x_3_4_1 x_3_4_2 x_3_4_3 x_3_4_4 x_3_4_5 x_3_4_6 x_3_4_7 x_3_4_8 x_3_4_9 x_3_5_1 x_3_5_2 x_3_5_3 x_3_5_4 x_3_5_5 x_3_5_6 x_3_5_7 x_3_5_8 x_3_5_9 x_3_6_1 x_3_6_2 x_3_6_3 x_3_6_4 x_3_6_5 x_3_6_6 x_3_6_7 x_3_6_8 x_3_6_9 x_3_7_1 x_3_7_2 x_3_7_3 x_3_7_4 x_3_7_5 x_3_7_6 x_3_7_7 x_3_7_8 x_3_7_9 x_3_8_1 x_3_8_2 x_3_8_3 x_3_8_4 x_3_8_5 x_3_8_6 x_3_8_7 x_3_8_8 x_3_8_9 x_4_0_1 x_4_0_2 x_4_0_3 x_4_0_4 x_4_0_5 x_4_0_6 x_4_0_7 x_4_0_8 x_4_0_9 x_4_1_1 x_4_1_2 x_4_1_3 x_4_1_4 x_4_1_5 x_4_1_6 x_4_1_7 x_4_1_8 x_4_1_9 x_4_2_1 x_4_2_2 x_4_2_3 x_4_2_4 x_4_2_5 x_4_2_6 x_4_2_7 x_4_2_8 x_4_2_9 x_4_3_1 x_4_3_2 x_4_3_3 x_4_3_4 x_4_3_5 x_4_3_6 x_4_3_7 x_4_3_8 x_4_3_9 x_4_4_1 x_4_4_2 x_4_4_3 x_4_4_4 x_4_4_5 x_4_4_6 x_4_4_7 x_4_4_8 x_4_4_9 x_4_5_1 x_4_5_2 x_4_5_3 x_4_5_4 x_4_5_5 x_4_5_6 x_4_5_7 x_4_5_8 x_4_5_9 x_4_6_1 x_4_6_2 x_4_6_3 x_4_6_4 x_4_6_5 x_4_6_6 x_4_6_7 x_4_6_8 x_4_6_9 x_4_7_1 x_4_7_2 x_4_7_3 x_4_7_4 x_4_7_5 x_4_7_6 x_4_7_7 x_4_7_8 x_4_7_9 x_4_8_1 x_4_8_2 x_4_8_3 x_4_8_4 x_4_8_5 x_4_8_6 x_4_8_7 x_4_8_8 x_4_8_9 x_5_0_1 x_5_0_2 x_5_0_3 x_5_0_4 x_5_0_5 x_5_0_6 x_5_0_7 x_5_0_8 x_5_0_9 x_5_1_1 x_5_1_2 x_5_1_3 x_5_1_4 x_5_1_5 x_5_1_6 x_5_1_7 x_5_1_8 x_5_1_9 x_5_2_1 x_5_2_2 x_5_2_3 x_5_2_4 x_5_2_5 x_5_2_6 x_5_2_7 x_5_2_8 x_5_2_9 x_5_3_1 x_5_3_2 x_5_3_3 x_5_3_4 x_5_3_5 x_5_3_6 x_5_3_7 x_5_3_8 x_5_3_9 x_5_4_1 x_5_4_2 x_5_4_3 x_5_4_4 x_5_4_5 x_5_4_6 x_5_4_7 x_5_4_8 x_5_4_9 x_5_5_1 x_5_5_2 x_5_5_3 x_5_5_4 x_5_5_5 x_5_5_6 x_5_5_7 x_5_5_8 x_5_5_9 x_5_6_1 x_5_6_2 x_5_6_3 x_5_6_4 x_5_6_5 x_5_6_6 x_5_6_7 x_5_6_8 x_5_6_9 x_5_7_1 x_5_7_2 x_5_7_3 x_5_7_4 x_5_7_5 x_5_7_6 x_5_7_7 x_5_7_8 x_5_7_9 x_5_8_1 x_5_8_2 x_5_8_3 x_5_8_4 x_5_8_5 x_5_8_6 x_5_8_7 x_5_8_8 x_5_8_9 x_6_0_1 x_6_0_2 x_6_0_3 x_6_0_4 x_6_0_5 x_6_0_6 x_6_0_7 x_6_0_8 x_6_0_9 x_6_1_1 x_6_1_2 x_6_1_3 x_6_1_4 x_6_1_5 x_6_1_6 x_6_1_7 x_6_1_8 x_6_1_9 x_6_2_1 x_6_2_2 x_6_2_3 x_6_2_4 x_6_2_5 x_6_2_6 x_6_2_7 x_6_2_8 x_6_2_9 x_6_3_1 x_6_3_2 x_6_3_3 x_6_3_4 x_6_3_5 x_6_3_6 x_6_3_7 x_6_3_8 x_6_3_9 x_6_4_1 x_6_4_2 x_6_4_3 x_6_4_4 x_6_4_5 x_6_4_6 x_6_4_7 x_6_4_8 x_6_4_9 x_6_5_1 x_6_5_2 x_6_5_3 x_6_5_4 x_6_5_5 x_6_5_6 x_6_5_7 x_6_5_8 x_6_5_9 x_6_6_1 x_6_6_2 x_6_6_3 x_6_6_4 x_6_6_5 x_6_6_6 x_6_6_7 x_6_6_8 x_6_6_9 x_6_7_1 x_6_7_2 x_6_7_3 x_6_7_4 x_6_7_5 x_6_7_6 x_6_7_7 x_6_7_8 x_6_7_9 x_6_8_1 x_6_8_2 x_6_8_3 x_6_8_4 x_6_8_5 x_6_8_6 x_6_8_7 x_6_8_8 x_6_8_9 x_7_0_1 x_7_0_2 x_7_0_3 x_7_0_4 x_7_0_5 x_7_0_6 x_7_0_7 x_7_0_8 x_7_0_9 x_7_1_1 x_7_1_2 x_7_1_3 x_7_1_4 x_7_1_5 x_7_1_6 x_7_1_7 x_7_1_8 x_7_1_9 x_7_2_1 x_7_2_2 x_7_2_3 x_7_2_4 x_7_2_5 x_7_2_6 x_7_2_7 x_7_2_8 x_7_2_9 x_7_3_1 x_7_3_2 x_7_3_3 x_7_3_4 x_7_3_5 x_7_3_6 x_7_3_7 x_7_3_8 x_7_3_9 x_7_4_1 x_7_4_2 x_7_4_3 x_7_4_4 x_7_4_5 x_7_4_6 x_7_4_7 x_7_4_8 x_7_4_9 x_7_5_1 x_7_5_2 x_7_5_3 x_7_5_4 x_7_5_5 x_7_5_6 x_7_5_7 x_7_5_8 x_7_5_9 x_7_6_1 x_7_6_2 x_7_6_3 x_7_6_4 x_7_6_5 x_7_6_6 x_7_6_7 x_7_6_8 x_7_6_9 x_7_7_1 x_7_7_2 x_7_7_3 x_7_7_4 x_7_7_5 x_7_7_6 x_7_7_7 x_7_7_8 x_7_7_9 x_7_8_1 x_7_8_2 x_7_8_3 x_7_8_4 x_7_8_5 x_7_8_6 x_7_8_7 x_7_8_8 x_7_8_9 x_8_0_1 x_8_0_2 x_8_0_3 x_8_0_4 x_8_0_5 x_8_0_6 x_8_0_7 x_8_0_8 x_8_0_9 x_8_1_1 x_8_1_2 x_8_1_3 x_8_1_4 x_8_1_5 x_8_1_6 x_8_1_7 x_8_1_8 x_8_1_9 x_8_2_1 x_8_2_2 x_8_2_3 x_8_2_4 x_8_2_5 x_8_2_6 x_8_2_7 x_8_2_8 x_8_2_9 x_8_3_1 x_8_3_2 x_8_3_3 x_8_3_4 x_8_3_5 x_8_3_6 x_8_3_7 x_8_3_8 x_8_3_9 x_8_4_1 x_8_4_2 x_8_4_3 x_8_4_4 x_8_4_5 x_8_4_6 x_8_4_7 x_8_4_8 x_8_4_9 x_8_5_1 x_8_5_2 x_8_5_3 x_8_5_4 x_8_5_5 x_8_5_6 x_8_5_7 x_8_5_8 x_8_5_9 x_8_6_1 x_8_6_2 x_8_6_3 x_8_6_4 x_8_6_5 x_8_6_6 x_8_6_7 x_8_6_8 x_8_6_9 x_8_7_1 x_8_7_2 x_8_7_3 x_8_7_4 x_8_7_5 x_8_7_6 x_8_7_7 x_8_7_8 x_8_7_9 x_8_8_1 x_8_8_2 x_8_8_3 x_8_8_4 x_8_8_5 x_8_8_6 x_8_8_7 x_8_8_8 x_8_8_9

 


End
