EjemplosAlgoritmos/ficheros/sudoku.txt
0,8,6
0,6,1
0,0,3
1,8,8
1,6,3
1,5,9
1,2,7
2,4,6
3,7,3
3,3,8
3,1,9
4,8,4
4,6,7
4,2,8
4,0,5
5,7,5
5,5,7
5,1,4
6,4,7
7,6,5
7,3,2
7,2,9
7,0,1
8,8,1
8,2,6
8,0,8